Route #1: 47 33 18 31 45 52 22 54
Route #2: 15 56 55 21 25 48 9
Route #3: 62 61 30 57 3 60
Route #4: 44 40 64 6 34 42 53
Route #5: 39 36 1 49 35 19 20
Route #6: 46 4 14 11 50 17 41
Route #7: 7 8 23 37 65 32
Route #8: 51 59 24 29 10 27 43 16
Route #9: 38 66 2 26 12 58 13
Route #10: 28 5 63
Cost 1125